nNurses = 141;
nHours = 36;
minHours = 8;
maxHours = 20;
maxConsec = 17;
maxPresence = 16;
demand = [16, 15, 10, 11, 12, 7, 7, 11, 8, 9, 7, 10, 14, 12, 7, 7, 9, 14, 17, 21, 18, 13, 8, 13, 10, 9, 10, 15, 20, 22, 24, 22, 26, 27, 29, 31];
